p cnf 39 29
-31 -38 -23 -22 -39 0
40 -5 -19 0
-23 -19 41 0
-32 42 -9 0
-30 -42 -41 -39 -4 0
-42 38 -1 0
-38 43 -27 0
-39 -22 -43 -26 0
-39 45 -1 0
-32 -45 -12 -37 0
-30 -45 -25 -9 -36 -19 0
-37 -5 0
-38 -6 -37 0
-40 -38 -30 0
-29 30 -26 -18 0
-14 -5 0
-7 39 -17 0
-23 -39 -20 -43 0
-40 -15 -25 0
-16 -43 0
-27 37 -41 0
-45 -10 0
-8 -27 39 0
27 5 0
-27 -9 -24 -6 -19 -1 -33 0
-37 44 -9 0
-44 -8 -33 -1 -17 0
-39 -3 -44 -35 0
-44 -27 -6 -36 -4 0
